decision_x1=[0,2];
decision_x2=[0,2];
decision_x3=[0,2];
decision_x4=[0,2];
decision_x5=[0,2];
decision_x6=[0,2];
decision_x7=[0,2];
decision_x8=[0,2];
decision_x9=[0,2];
decision_x10=[0,2];
random_y1=[0,2];
random_y2=[0,2];
constraint_x3_x2=[
0,0,8|
0,1,8.5|
0,2,8.3|
1,0,0.085|
1,1,9.2|
1,2,8.4|
2,0,1.4|
2,1,4.5|
2,2,6.5|
];
constraint_x4_x3=[
0,0,8.2|
0,1,6.2|
0,2,1.9|
1,0,4|
1,1,8.6|
1,2,2.1|
2,0,5.8|
2,1,0.79|
2,2,5.2|
];
constraint_x5_x3=[
0,0,9.4|
0,1,0.37|
0,2,7.1|
1,0,8.8|
1,1,5.6|
1,2,0.45|
2,0,2.8|
2,1,8.9|
2,2,9.5|
];
constraint_x6_x1=[
0,0,0.6|
0,1,4.1|
0,2,4.4|
1,0,6.7|
1,1,9|
1,2,5.3|
2,0,5.9|
2,1,2.4|
2,2,0.13|
];
constraint_x6_x3=[
0,0,4.4|
0,1,8.4|
0,2,3.6|
1,0,5.3|
1,1,1.2|
1,2,1.9|
2,0,6|
2,1,8.1|
2,2,4.7|
];
constraint_x6_x5=[
0,0,6.1|
0,1,3.6|
0,2,6.9|
1,0,7.7|
1,1,7.1|
1,2,6.1|
2,0,8.2|
2,1,9.2|
2,2,5.8|
];
constraint_x7_x1=[
0,0,9.7|
0,1,7.7|
0,2,7.2|
1,0,3.9|
1,1,1.4|
1,2,6.5|
2,0,5.3|
2,1,0.95|
2,2,3.2|
];
constraint_x7_x3=[
0,0,9.6|
0,1,0.44|
0,2,7.3|
1,0,1.6|
1,1,5.1|
1,2,2.7|
2,0,7.2|
2,1,9.4|
2,2,5.6|
];
constraint_x7_x4=[
0,0,6|
0,1,8.8|
0,2,9.5|
1,0,2.2|
1,1,1.8|
1,2,3|
2,0,4.7|
2,1,0.3|
2,2,4.4|
];
constraint_x8_x1=[
0,0,1.8|
0,1,0.93|
0,2,4.4|
1,0,5.5|
1,1,8.8|
1,2,8.4|
2,0,1.5|
2,1,3.6|
2,2,7.1|
];
constraint_x8_x2=[
0,0,8.8|
0,1,2.2|
0,2,0.82|
1,0,6.2|
1,1,0.98|
1,2,3.6|
2,0,8.7|
2,1,5.1|
2,2,1|
];
constraint_x8_x3=[
0,0,9.7|
0,1,0.75|
0,2,4.3|
1,0,0.76|
1,1,9.1|
1,2,0.52|
2,0,5.7|
2,1,4.4|
2,2,8.8|
];
constraint_x8_x4=[
0,0,10|
0,1,4.4|
0,2,4.8|
1,0,5.2|
1,1,3.5|
1,2,8.1|
2,0,4.4|
2,1,2.4|
2,2,8.1|
];
constraint_x8_x6=[
0,0,6.5|
0,1,0.83|
0,2,3|
1,0,1.1|
1,1,5.4|
1,2,1.6|
2,0,9.2|
2,1,7|
2,2,6.1|
];
constraint_x8_x7=[
0,0,7.2|
0,1,9|
0,2,3.6|
1,0,1.1|
1,1,6.3|
1,2,8.1|
2,0,3.7|
2,1,8.2|
2,2,4.6|
];
constraint_x9_x1=[
0,0,0.34|
0,1,10|
0,2,1.4|
1,0,1.7|
1,1,1|
1,2,8.9|
2,0,9.5|
2,1,5.7|
2,2,4.2|
];
constraint_x9_x3=[
0,0,2.2|
0,1,3.1|
0,2,5.9|
1,0,6.8|
1,1,9.3|
1,2,7.4|
2,0,6.2|
2,1,1.6|
2,2,8.3|
];
constraint_x9_x6=[
0,0,7.1|
0,1,8.8|
0,2,4|
1,0,9|
1,1,5.7|
1,2,4.6|
2,0,3.7|
2,1,0.36|
2,2,4.1|
];
constraint_x9_x8=[
0,0,4.9|
0,1,0.97|
0,2,3.7|
1,0,0.79|
1,1,6.4|
1,2,0.77|
2,0,7.7|
2,1,3.4|
2,2,5.1|
];
constraint_x10_x1=[
0,0,8.9|
0,1,9.5|
0,2,3.9|
1,0,6.3|
1,1,3.2|
1,2,0.41|
2,0,3.8|
2,1,2.2|
2,2,9.8|
];
constraint_x10_x3=[
0,0,3.5|
0,1,9.9|
0,2,6.7|
1,0,4|
1,1,6.3|
1,2,2.8|
2,0,0.97|
2,1,2.6|
2,2,0.086|
];
constraint_x10_x5=[
0,0,9.2|
0,1,2.6|
0,2,3.7|
1,0,4.1|
1,1,2|
1,2,6.9|
2,0,2.4|
2,1,4.1|
2,2,7.8|
];
constraint_x10_x6=[
0,0,5.6|
0,1,2.6|
0,2,2|
1,0,4|
1,1,7.9|
1,2,3.3|
2,0,9.6|
2,1,8.6|
2,2,0.32|
];
constraint_x1_y1=[
0,0,6.5|
0,1,8|
0,2,10|
1,0,7.5|
1,1,6|
1,2,9.9|
2,0,9.9|
2,1,7.6|
2,2,5|
];
constraint_x2_y2=[
0,0,6|
0,1,7.6|
0,2,4|
1,0,0.022|
1,1,8.8|
1,2,2.1|
2,0,0.89|
2,1,2.1|
2,2,4.3|
];
initial_distribution_y1=[0.31,0.38,0.31];
initial_distribution_y2=[0.4,0.32,0.28];
transition_y1=[
0.8,0.15,0.057|
0.38,0.21,0.41|
0.43,0.25,0.32|
];
transition_y2=[
0.4,0.012,0.59|
0.12,0.55,0.33|
0.23,0.13,0.64|
];
